70
1000
5
13
56
99
55
74
0 1
0 2
0 3
0 9
0 10
0 13
0 16
0 19
0 20
0 22
0 24
0 28
0 38
0 41
0 44
0 46
0 49
0 53
0 54
0 57
0 61
0 62
0 64
0 65
0 68
1 5
1 10
1 12
1 14
1 18
1 20
1 21
1 24
1 29
1 33
1 36
1 37
1 38
1 39
1 41
1 42
1 43
1 58
1 59
1 62
1 63
1 64
1 68
1 69
2 3
2 4
2 7
2 8
2 10
2 11
2 12
2 14
2 15
2 18
2 27
2 28
2 33
2 35
2 37
2 43
2 50
2 51
2 52
2 60
2 61
2 62
2 65
2 67
2 68
2 69
3 6
3 7
3 8
3 13
3 14
3 15
3 20
3 21
3 24
3 26
3 27
3 30
3 31
3 33
3 35
3 36
3 39
3 40
3 44
3 48
3 49
3 51
3 52
3 55
3 58
3 60
3 61
3 63
3 66
3 68
3 69
4 5
4 9
4 16
4 21
4 23
4 35
4 38
4 39
4 41
4 46
4 49
4 53
4 55
4 56
4 58
4 60
4 62
4 63
4 67
4 69
5 8
5 13
5 17
5 18
5 23
5 26
5 27
5 33
5 37
5 38
5 41
5 42
5 43
5 44
5 45
5 47
5 50
5 55
5 56
5 60
5 63
5 65
5 66
6 13
6 14
6 18
6 21
6 24
6 26
6 27
6 29
6 33
6 35
6 37
6 42
6 45
6 47
6 48
6 53
6 57
6 58
6 60
6 62
6 63
6 64
6 68
7 8
7 9
7 10
7 12
7 13
7 15
7 16
7 17
7 20
7 22
7 26
7 28
7 30
7 32
7 40
7 43
7 47
7 48
7 51
7 53
7 55
7 62
7 63
7 64
8 10
8 12
8 17
8 19
8 25
8 27
8 28
8 30
8 31
8 32
8 34
8 37
8 38
8 40
8 41
8 42
8 44
8 45
8 46
8 47
8 49
8 52
8 53
8 57
8 58
8 60
8 66
9 10
9 11
9 12
9 14
9 15
9 16
9 18
9 19
9 20
9 23
9 25
9 30
9 31
9 33
9 34
9 38
9 39
9 41
9 42
9 44
9 46
9 50
9 56
9 63
9 64
9 66
9 69
10 15
10 16
10 17
10 19
10 20
10 21
10 24
10 29
10 30
10 31
10 32
10 35
10 36
10 39
10 42
10 43
10 44
10 45
10 47
10 51
10 59
10 61
10 64
10 65
10 66
10 67
10 68
11 12
11 13
11 15
11 19
11 23
11 26
11 29
11 34
11 36
11 39
11 40
11 42
11 46
11 49
11 51
11 55
11 56
11 57
11 59
11 61
11 62
11 63
11 66
12 14
12 16
12 18
12 22
12 24
12 25
12 28
12 30
12 34
12 37
12 38
12 39
12 40
12 42
12 43
12 45
12 46
12 47
12 50
12 51
12 52
12 55
12 63
12 65
12 68
13 14
13 15
13 17
13 18
13 19
13 20
13 21
13 22
13 23
13 24
13 26
13 32
13 33
13 34
13 41
13 42
13 44
13 54
13 55
13 56
13 59
13 60
13 61
13 64
13 65
13 68
14 15
14 17
14 19
14 22
14 30
14 33
14 34
14 37
14 41
14 44
14 45
14 46
14 47
14 49
14 52
14 55
14 56
14 59
14 62
14 66
14 69
15 16
15 17
15 19
15 20
15 24
15 29
15 30
15 32
15 35
15 37
15 42
15 43
15 47
15 49
15 51
15 52
15 53
15 58
15 59
15 60
15 61
15 62
15 65
15 66
15 67
16 17
16 18
16 22
16 25
16 27
16 32
16 34
16 36
16 39
16 40
16 41
16 42
16 43
16 45
16 46
16 48
16 49
16 50
16 51
16 53
16 56
16 58
16 59
16 60
16 66
16 69
17 20
17 22
17 25
17 28
17 29
17 32
17 34
17 39
17 40
17 41
17 44
17 45
17 57
17 62
17 63
17 64
17 65
18 21
18 22
18 25
18 28
18 29
18 30
18 31
18 32
18 33
18 37
18 39
18 41
18 42
18 44
18 48
18 49
18 52
18 53
18 54
18 55
18 62
18 63
18 64
18 67
18 69
19 27
19 28
19 32
19 34
19 36
19 43
19 44
19 45
19 46
19 47
19 49
19 55
19 56
19 58
19 60
19 63
19 64
19 65
20 24
20 30
20 31
20 35
20 36
20 38
20 39
20 41
20 42
20 43
20 46
20 47
20 50
20 54
20 55
20 56
20 57
20 58
20 59
20 61
20 63
20 64
20 66
21 27
21 28
21 29
21 30
21 36
21 39
21 40
21 42
21 45
21 46
21 52
21 53
21 54
21 55
21 58
21 61
21 65
21 66
21 67
21 69
22 23
22 28
22 29
22 31
22 32
22 33
22 37
22 43
22 53
22 55
22 64
22 65
23 26
23 33
23 34
23 37
23 39
23 40
23 41
23 42
23 45
23 46
23 49
23 56
23 59
23 61
23 62
23 65
23 66
23 69
24 32
24 34
24 43
24 44
24 47
24 50
24 52
24 53
24 54
24 55
24 56
24 58
24 61
24 64
24 66
25 27
25 28
25 29
25 33
25 35
25 36
25 37
25 39
25 40
25 43
25 44
25 46
25 48
25 50
25 51
25 54
25 55
25 59
25 61
25 63
25 64
25 68
26 27
26 28
26 29
26 33
26 36
26 39
26 42
26 48
26 54
26 55
26 56
26 57
26 59
26 61
26 62
26 64
26 65
26 67
26 69
27 28
27 30
27 32
27 35
27 36
27 40
27 43
27 44
27 46
27 47
27 48
27 49
27 50
27 54
27 55
27 56
27 57
27 61
27 63
27 64
27 69
28 35
28 37
28 38
28 41
28 43
28 44
28 45
28 47
28 49
28 50
28 53
28 55
28 56
28 57
28 58
28 60
28 61
28 63
28 64
28 65
29 30
29 33
29 37
29 38
29 40
29 42
29 43
29 48
29 50
29 53
29 54
29 64
29 65
29 67
29 69
30 31
30 33
30 34
30 35
30 37
30 38
30 40
30 43
30 44
30 45
30 46
30 49
30 50
30 54
30 56
30 57
30 58
30 60
30 61
30 67
30 69
31 33
31 34
31 36
31 40
31 41
31 43
31 45
31 46
31 47
31 49
31 50
31 51
31 52
31 55
31 57
31 61
31 62
31 67
32 34
32 36
32 41
32 48
32 49
32 50
32 51
32 52
32 53
32 55
32 56
32 59
32 60
32 67
32 68
33 34
33 35
33 39
33 40
33 42
33 47
33 48
33 50
33 55
33 57
33 58
33 60
33 65
33 66
33 67
34 37
34 42
34 45
34 47
34 48
34 49
34 50
34 51
34 52
34 55
34 56
34 57
34 58
34 62
34 67
34 68
35 37
35 38
35 40
35 41
35 42
35 46
35 47
35 50
35 51
35 52
35 54
35 56
35 58
35 59
35 64
35 66
35 67
36 37
36 38
36 39
36 41
36 42
36 47
36 50
36 51
36 52
36 57
36 58
36 60
36 69
37 42
37 43
37 50
37 52
37 56
37 57
37 61
37 62
37 63
37 65
37 67
37 69
38 40
38 41
38 42
38 44
38 46
38 47
38 58
38 61
38 65
38 67
38 68
39 40
39 41
39 51
39 55
39 57
39 62
39 64
39 66
39 68
40 43
40 45
40 46
40 48
40 52
40 54
40 55
40 57
40 59
40 67
41 42
41 44
41 46
41 47
41 48
41 50
41 53
41 55
41 56
41 57
41 64
41 65
42 44
42 49
42 50
42 54
42 56
42 57
42 59
42 61
42 62
42 63
42 64
42 65
42 66
42 68
43 45
43 47
43 51
43 53
43 54
43 59
43 63
43 64
43 68
43 69
44 46
44 47
44 48
44 49
44 51
44 53
44 54
44 60
44 62
44 64
44 65
44 66
44 68
44 69
45 46
45 47
45 51
45 54
45 60
45 62
45 63
45 64
45 67
45 68
46 47
46 52
46 56
46 58
46 60
46 64
46 65
46 66
46 67
46 68
46 69
47 52
47 54
47 55
47 56
47 57
47 60
47 61
47 64
47 65
47 66
48 50
48 53
48 61
48 63
48 66
48 69
49 51
49 58
49 64
49 65
49 68
50 51
50 53
50 57
50 59
50 62
50 64
50 65
50 69
51 52
51 53
51 57
51 58
51 60
51 61
51 63
51 65
51 67
52 56
52 59
52 61
52 62
52 64
52 66
52 67
53 54
53 58
53 61
53 65
54 55
54 56
54 57
54 61
54 67
55 56
55 57
55 58
55 61
55 62
55 64
55 67
56 57
56 58
56 61
56 63
56 64
56 68
57 58
57 60
57 63
58 59
58 61
58 63
58 68
59 60
59 62
59 64
59 66
59 68
60 61
60 62
60 65
60 68
61 62
61 63
61 64
61 65
61 66
61 67
61 68
61 69
62 63
62 65
62 68
63 64
63 65
63 67
63 69
64 65
64 66
64 67
64 69
65 66
65 67
4 31 2 10 9 65 25 20 21 24 44 15 27 35
28 40 30 14 36 60 58 7 22 8 52 45 67 5
41 29 48 3 51 11 61 68 26 18 69 33 1 43
38 46 17 57 59 12 6 32 39 47 63 16 42 54
66 49 34 56 64 62 23 50 0 53 19 13 55 37
